SYSTEM = TiS2 O1 S-Zigzag Surface 2-Interlayer, H2O, Rotate

Startup options
ISTART   = 0        ! job: 0-new, 1-cont, 2-samecut
ICHARG   = 2        ! charge: 1-file, 2-atom, 3-const
INIWAV   = 1        ! wfn: 0-lowe, 1-rand

Electronic relaxation
NELM     = 200      ! Maximum number of SCF iterations
ALGO     = Fast
ISPIN    = 2        ! spin polarization: 1-no spin polarization, 2-spin polarization
MAGMOM   = 40*0.0 20*5.0 8*0.0 16*0.0
EDIFF    = 1E-05    ! energy difference cutoff
ISMEAR   = 0        ! smearing method: 0-gaussian, -5->tetrahedral method, 2-MP method (2nd order)
SIGMA    = 0.05
PREC     = accurate
ENCUT    = 520      ! Kinetic Energy cut-off (determined by convergence study)
ISYM     = 0
#AMIX     = 0.05
#BMIX     = 0.01

output options
LWAVE    = .FALSE.  ! Write the wavecar file?
LCHARG   = .FALSE.  ! Write the chgcar file?
LAECHG   = .FALSE.
LREAL    = Auto
LVTOT    = .FALSE.

#DOS options
#NEDOS    = 1200
#LORBIT   = 11

ionic relaxation options
EDIFFG   = -0.05    ! if negative, relax until forces are below this value (in eV/A)
IBRION   = 2        ! -1 freeze; 0 AIMD, 1 quasi-Newton, 2 CG method, 3 damp MD
NSW      = 500      ! Number of relaxation steps
ISIF     = 2        ! if relaxation, allows the all to relax
POTIM    = 0.2      ! default is 0.5, scaling factor for forces

Special options
LUSE_VDW = .TRUE.
BPARAM   = 15.7

Special options
METAGGA  = SCAN
LASPH    = .TRUE.
