Automatic mesh
0    ! Automatic
Monkhorst-pack
 1 1 1
 0 0 0
