TiS2 O1 S-Zigzag-Left Surface 2-Interlay
   1.00000000000000     
     6.8221001625000000    0.0000000000000000    0.0000000000000000
     0.0000000000000000   21.1529579163000001    0.0000000000000000
     0.0000000000000000    3.5994499688000001   16.1233351808999998
   S    Ti   O    H 
    40    20     8    16
Selective dynamics
Direct
  0.2441080589392387  0.0827636889984411  0.9560475855656480   T   T   T
  0.7245696958754019  0.0832182247154527  0.9566632414264310   T   T   T
  0.0000000000000000  0.1819415949999978  0.0604207519999989   F   F   F
  0.5000000000000000  0.1819415949999978  0.0604207519999989   F   F   F
  0.2234170999660418  0.2840590328247481  0.1607521262349065   T   T   T
  0.7273306310522706  0.2826455455397393  0.1610114157986097   T   T   T
  0.9930233271717308  0.3867030229631799  0.2679184744799458   T   T   T
  0.4848863634544358  0.3843004640355236  0.2579541925501749   T   T   T
  0.9924828100430206  0.0140608257876868  0.1291534989660968   T   T   T
  0.4853665898230516  0.0156013297758841  0.1412325265895907   T   T   T
  0.2238349412017753  0.1158499852848256  0.2390114032677381   T   T   T
  0.7272431089726933  0.1173962291902265  0.2385403815643706   T   T   T
  0.0000000000000000  0.2180582040000019  0.3395787500000012   F   F   F
  0.4999985319999993  0.2180582040000019  0.3395787500000012   F   F   F
  0.2371768460204475  0.3211480406077230  0.4416449199271075   T   T   T
  0.7239394471171531  0.3165290474132570  0.4427636441042663   T   T   T
  0.9963032746084671  0.4703442386770691  0.4733884481352151   T   T   T
  0.4923527415698286  0.4223849009610445  0.5353200756623205   T   T   T
  0.2593484017616476  0.0853977163981599  0.4553626122165014   T   T   T
  0.7460883351733206  0.0809439392740004  0.4565321616668994   T   T   T
  0.0000000000000000  0.1819416000000018  0.5604207430000017   F   F   F
  0.5000000000000000  0.1819416000000018  0.5604207430000017   F   F   F
  0.2226028178479457  0.2844019722143908  0.6603532876904870   T   T   T
  0.7257739078507441  0.2835436903998099  0.6611240059161141   T   T   T
  0.9915489974812890  0.3868349218605715  0.7669835480826109   T   T   T
  0.4823753426922944  0.3839719339511248  0.7575159675166387   T   T   T
  0.9876003531757271  0.0140160429922989  0.6294537715463161   T   T   T
  0.4965132841796994  0.0165142890443376  0.6396606160416618   T   T   T
  0.2355367241042793  0.1181261662579586  0.7366832647955557   T   T   T
  0.7375152158760894  0.1182268954190509  0.7375134472187115   T   T   T
  0.0000000000000000  0.2180585139999991  0.8395790659999989   F   F   F
  0.4999985319999993  0.2180585139999991  0.8395790659999989   F   F   F
  0.2328809347011387  0.3215658687748849  0.9414483504262340   T   T   T
  0.7221618246483517  0.3178059522848381  0.9425133458062906   T   T   T
  0.9932947680861843  0.4729606854321549  0.9700031931102342   T   T   T
  0.4878480258105104  0.4245184063093960  0.0332760332627972   T   T   T
  0.9857988371122347  0.9331466093746693  0.9230463171801172   T   T   T
  0.4881899043536416  0.9786975201192692  0.8628881767880321   T   T   T
  0.9806559214957721  0.9316407557221006  0.4242547160081683   T   T   T
  0.4886381109654196  0.9796668747518266  0.3624769761063197   T   T   T
  0.9849559273379360  0.0161038092815116  0.9855054487855522   T   T   T
  0.4851120150145172  0.9963772324609986  0.9826029834154719   T   T   T
  0.2221514870704240  0.1027012183340505  0.1004535990280293   T   T   T
  0.7062671928333116  0.0925836152441108  0.1039448936357481   T   T   T
  0.0000000000000000  0.1999997489999998  0.1999995729999995   F   F   F
  0.5000000000000000  0.1999997489999998  0.1999995729999995   F   F   F
  0.2191339720060745  0.2983807503001134  0.2990690707230864   T   T   T
  0.7048930054011009  0.3069736154304541  0.2955846883788234   T   T   T
  0.9757923282896259  0.3874588426917914  0.4107738759286114   T   T   T
  0.4864653759901386  0.4036688639290674  0.4162163933327525   T   T   T
  0.0074195155555303  0.0142222315653767  0.4867616214369893   T   T   T
  0.4957836514308901  0.9982035466670454  0.4818153528200669   T   T   T
  0.2803760438465756  0.0948775534269552  0.6016913462128879   T   T   T
  0.7682097605862710  0.1041042369552244  0.5980199102157954   T   T   T
  0.0000000000000000  0.2000000569999969  0.6999999040000020   F   F   F
  0.5000000000000000  0.2000000569999969  0.6999999040000020   F   F   F
  0.2175552533427866  0.2990037632267400  0.7987139993743476   T   T   T
  0.7035929235986353  0.3067318590241702  0.7952701672115384   T   T   T
  0.9730930723352685  0.3889393025412052  0.9096928457522545   T   T   T
  0.4823942148127878  0.4039663154498573  0.9150379976210916   T   T   T
  0.6992002919380281  0.4679109979136333  0.8538914902643252   T   T   T
  0.3076021454916699  0.4801346794238677  0.8508898850148641   T   T   T
  0.7023085285872050  0.4677934067824583  0.3566514835756908   T   T   T
  0.3104141540473236  0.4798364754181587  0.3540177926304499   T   T   T
  0.2763674166487584  0.9347246001180776  0.5396475286952818   T   T   T
  0.6673421152368886  0.9208815744442703  0.5451294400835989   T   T   T
  0.2906221092491053  0.9260832537267483  0.0422889527980794   T   T   T
  0.6813241485446311  0.9263646131086112  0.0424035109410870   T   T   T
  0.7893192046020925  0.4904701372379119  0.8886198940968295   T   T   T
  0.7007348607411993  0.4867577383286892  0.7949939083289274   T   T   T
  0.1951423686953452  0.4905548694003009  0.8870384472480175   T   T   T
  0.2597569635884232  0.4805334761003253  0.7955390267818746   T   T   T
  0.7067273638360081  0.4869957655894468  0.2979139789125573   T   T   T
  0.7952763726450223  0.4887547589736481  0.3924282736744265   T   T   T
  0.2607266567310984  0.4811081773266604  0.2986950017367210   T   T   T
  0.1978372685706932  0.4885540026702495  0.3913963370707570   T   T   T
  0.1861537226950973  0.9131968735636713  0.5034734555203066   T   T   T
  0.2725770449976386  0.9151673906074423  0.5982953305066908   T   T   T
  0.7804397818174136  0.9124890212604935  0.5081082160040529   T   T   T
  0.7175029643206676  0.9215714099280827  0.5998857385352904   T   T   T
  0.1813269665403500  0.9136530932184120  0.0056997936099893   T   T   T
  0.2530685839272701  0.9187633180845659  0.1000601842916662   T   T   T
  0.7900984816464839  0.9130357445967108  0.0065676918978328   T   T   T
  0.7143324324370651  0.9174895229344131  0.1007459190176046   T   T   T
 
  0.00000000E+00  0.00000000E+00  0.00000000E+00
  0.00000000E+00  0.00000000E+00  0.00000000E+00
  0.00000000E+00  0.00000000E+00  0.00000000E+00
  0.00000000E+00  0.00000000E+00  0.00000000E+00
  0.00000000E+00  0.00000000E+00  0.00000000E+00
  0.00000000E+00  0.00000000E+00  0.00000000E+00
  0.00000000E+00  0.00000000E+00  0.00000000E+00
  0.00000000E+00  0.00000000E+00  0.00000000E+00
  0.00000000E+00  0.00000000E+00  0.00000000E+00
  0.00000000E+00  0.00000000E+00  0.00000000E+00
  0.00000000E+00  0.00000000E+00  0.00000000E+00
  0.00000000E+00  0.00000000E+00  0.00000000E+00
  0.00000000E+00  0.00000000E+00  0.00000000E+00
  0.00000000E+00  0.00000000E+00  0.00000000E+00
  0.00000000E+00  0.00000000E+00  0.00000000E+00
  0.00000000E+00  0.00000000E+00  0.00000000E+00
  0.00000000E+00  0.00000000E+00  0.00000000E+00
  0.00000000E+00  0.00000000E+00  0.00000000E+00
  0.00000000E+00  0.00000000E+00  0.00000000E+00
  0.00000000E+00  0.00000000E+00  0.00000000E+00
  0.00000000E+00  0.00000000E+00  0.00000000E+00
  0.00000000E+00  0.00000000E+00  0.00000000E+00
  0.00000000E+00  0.00000000E+00  0.00000000E+00
  0.00000000E+00  0.00000000E+00  0.00000000E+00
  0.00000000E+00  0.00000000E+00  0.00000000E+00
  0.00000000E+00  0.00000000E+00  0.00000000E+00
  0.00000000E+00  0.00000000E+00  0.00000000E+00
  0.00000000E+00  0.00000000E+00  0.00000000E+00
  0.00000000E+00  0.00000000E+00  0.00000000E+00
  0.00000000E+00  0.00000000E+00  0.00000000E+00
  0.00000000E+00  0.00000000E+00  0.00000000E+00
  0.00000000E+00  0.00000000E+00  0.00000000E+00
  0.00000000E+00  0.00000000E+00  0.00000000E+00
  0.00000000E+00  0.00000000E+00  0.00000000E+00
  0.00000000E+00  0.00000000E+00  0.00000000E+00
  0.00000000E+00  0.00000000E+00  0.00000000E+00
  0.00000000E+00  0.00000000E+00  0.00000000E+00
  0.00000000E+00  0.00000000E+00  0.00000000E+00
  0.00000000E+00  0.00000000E+00  0.00000000E+00
  0.00000000E+00  0.00000000E+00  0.00000000E+00
  0.00000000E+00  0.00000000E+00  0.00000000E+00
  0.00000000E+00  0.00000000E+00  0.00000000E+00
  0.00000000E+00  0.00000000E+00  0.00000000E+00
  0.00000000E+00  0.00000000E+00  0.00000000E+00
  0.00000000E+00  0.00000000E+00  0.00000000E+00
  0.00000000E+00  0.00000000E+00  0.00000000E+00
  0.00000000E+00  0.00000000E+00  0.00000000E+00
  0.00000000E+00  0.00000000E+00  0.00000000E+00
  0.00000000E+00  0.00000000E+00  0.00000000E+00
  0.00000000E+00  0.00000000E+00  0.00000000E+00
  0.00000000E+00  0.00000000E+00  0.00000000E+00
  0.00000000E+00  0.00000000E+00  0.00000000E+00
  0.00000000E+00  0.00000000E+00  0.00000000E+00
  0.00000000E+00  0.00000000E+00  0.00000000E+00
  0.00000000E+00  0.00000000E+00  0.00000000E+00
  0.00000000E+00  0.00000000E+00  0.00000000E+00
  0.00000000E+00  0.00000000E+00  0.00000000E+00
  0.00000000E+00  0.00000000E+00  0.00000000E+00
  0.00000000E+00  0.00000000E+00  0.00000000E+00
  0.00000000E+00  0.00000000E+00  0.00000000E+00
  0.00000000E+00  0.00000000E+00  0.00000000E+00
  0.00000000E+00  0.00000000E+00  0.00000000E+00
  0.00000000E+00  0.00000000E+00  0.00000000E+00
  0.00000000E+00  0.00000000E+00  0.00000000E+00
  0.00000000E+00  0.00000000E+00  0.00000000E+00
  0.00000000E+00  0.00000000E+00  0.00000000E+00
  0.00000000E+00  0.00000000E+00  0.00000000E+00
  0.00000000E+00  0.00000000E+00  0.00000000E+00
  0.00000000E+00  0.00000000E+00  0.00000000E+00
  0.00000000E+00  0.00000000E+00  0.00000000E+00
  0.00000000E+00  0.00000000E+00  0.00000000E+00
  0.00000000E+00  0.00000000E+00  0.00000000E+00
  0.00000000E+00  0.00000000E+00  0.00000000E+00
  0.00000000E+00  0.00000000E+00  0.00000000E+00
  0.00000000E+00  0.00000000E+00  0.00000000E+00
  0.00000000E+00  0.00000000E+00  0.00000000E+00
  0.00000000E+00  0.00000000E+00  0.00000000E+00
  0.00000000E+00  0.00000000E+00  0.00000000E+00
  0.00000000E+00  0.00000000E+00  0.00000000E+00
  0.00000000E+00  0.00000000E+00  0.00000000E+00
  0.00000000E+00  0.00000000E+00  0.00000000E+00
  0.00000000E+00  0.00000000E+00  0.00000000E+00
  0.00000000E+00  0.00000000E+00  0.00000000E+00
  0.00000000E+00  0.00000000E+00  0.00000000E+00
